
Gurobi 6.0.5 (mac64) logging started Sun Jan 10 01:14:39 2016


Gurobi 6.0.5 (mac64) logging started Sun Jan 10 01:14:52 2016


Gurobi 6.0.5 (mac64) logging started Sun Jan 10 01:16:15 2016


Gurobi 6.0.5 (mac64) logging started Sun Jan 10 01:17:00 2016


Gurobi 6.0.5 (mac64) logging started Sun Jan 10 01:17:48 2016


Gurobi 6.0.5 (mac64) logging started Sun Jan 10 01:17:59 2016


Gurobi 6.0.5 (mac64) logging started Sun Jan 10 01:18:09 2016


Gurobi 6.0.5 (mac64) logging started Sun Jan 10 01:19:43 2016


Gurobi 6.0.5 (mac64) logging started Sun Jan 10 01:21:21 2016


Gurobi 6.0.5 (mac64) logging started Sun Jan 10 01:21:33 2016


Gurobi 6.0.5 (mac64) logging started Sun Jan 10 01:21:45 2016


Gurobi 6.0.5 (mac64) logging started Sun Jan 10 01:21:55 2016


Gurobi 6.0.5 (mac64) logging started Sun Jan 10 01:22:00 2016


Gurobi 6.0.5 (mac64) logging started Sun Jan 10 01:22:09 2016


Gurobi 6.0.5 (mac64) logging started Sun Jan 10 01:22:39 2016


Gurobi 6.0.5 (mac64) logging started Sun Jan 10 01:22:51 2016


Gurobi 6.0.5 (mac64) logging started Sun Jan 10 01:23:19 2016


Gurobi 6.0.5 (mac64) logging started Sun Jan 10 01:23:33 2016


Gurobi 6.0.5 (mac64) logging started Sun Jan 10 01:23:43 2016


Gurobi 6.0.5 (mac64) logging started Sun Jan 10 01:24:06 2016


Gurobi 6.0.5 (mac64) logging started Sun Jan 10 01:24:16 2016


Gurobi 6.0.5 (mac64) logging started Sun Jan 10 01:24:22 2016


Gurobi 6.0.5 (mac64) logging started Sun Jan 10 01:26:04 2016


Gurobi 6.0.5 (mac64) logging started Sun Jan 10 01:26:17 2016


Gurobi 6.0.5 (mac64) logging started Sun Jan 10 01:26:46 2016


Gurobi 6.0.5 (mac64) logging started Sun Jan 10 01:34:47 2016


Gurobi 6.0.5 (mac64) logging started Sun Jan 10 01:35:26 2016


Gurobi 6.0.5 (mac64) logging started Sun Jan 10 01:35:35 2016


Gurobi 6.0.5 (mac64) logging started Sun Jan 10 01:35:56 2016


Gurobi 6.0.5 (mac64) logging started Sun Jan 10 01:36:06 2016


Gurobi 6.0.5 (mac64) logging started Sun Jan 10 01:36:18 2016


Gurobi 6.0.5 (mac64) logging started Sun Jan 10 01:36:32 2016


Gurobi 6.0.5 (mac64) logging started Sun Jan 10 01:36:54 2016


Gurobi 6.0.5 (mac64) logging started Sun Jan 10 01:37:31 2016


Gurobi 6.0.5 (mac64) logging started Sun Jan 10 01:37:41 2016


Gurobi 6.0.5 (mac64) logging started Sun Jan 10 01:37:53 2016


Gurobi 6.0.5 (mac64) logging started Sun Jan 10 01:38:06 2016


Gurobi 6.0.5 (mac64) logging started Sun Jan 10 01:38:18 2016


Gurobi 6.0.5 (mac64) logging started Sun Jan 10 01:39:04 2016


Gurobi 6.0.5 (mac64) logging started Sun Jan 10 01:39:14 2016


Gurobi 6.0.5 (mac64) logging started Sun Jan 10 01:39:25 2016


Gurobi 6.0.5 (mac64) logging started Sun Jan 10 01:41:07 2016


Gurobi 6.0.5 (mac64) logging started Sun Jan 10 01:41:19 2016


Gurobi 6.0.5 (mac64) logging started Sun Jan 10 02:12:08 2016


Gurobi 6.0.5 (mac64) logging started Sun Jan 10 02:12:45 2016


Gurobi 6.0.5 (mac64) logging started Sun Jan 10 02:12:53 2016

